(set-info :source |printed by MathSAT|)
(declare-fun diff1 () Int)
(declare-fun call__main_.nB0 () Int)
(declare-fun call__main_.call_hypothese2.c () Int)
(declare-fun call__main_.call_controleur.flby2 () Bool)
(declare-fun call__main_.flby2 () Int)
(declare-fun call__main_.avance0 () Bool)
(declare-fun call__main_._H0_ () Bool)
(declare-fun call__main_.call_controleur2.retard () Bool)
(declare-fun call__main_.call_hypothese2.flby2 () Int)
(declare-fun call__main_.call_hypothese.ok () Bool)
(declare-fun call__main_.call_controleur2.avance () Bool)
(declare-fun call__main_.retard0 () Bool)
(declare-fun flby () Bool)
(declare-fun nS () Int)
(declare-fun retard1 () Bool)
(declare-fun call__main_.call_hypothese2.ok () Bool)
(declare-fun ast () Bool)
(declare-fun call__main_.retard1 () Bool)
(declare-fun call__main_.avance1 () Bool)
(declare-fun call__main_.call_controleur2.flby () Bool)
(declare-fun diff0 () Int)
(declare-fun call__main_.call_hypothese.flby () Bool)
(declare-fun call__main_.ast () Bool)
(declare-fun nB1 () Int)
(declare-fun _OK_ () Bool)
(declare-fun call__main_.nS () Int)
(declare-fun call__main_.flby () Int)
(declare-fun call__main_.call_controleur.flby () Bool)
(declare-fun avance1 () Bool)
(declare-fun call__main_._H1_ () Bool)
(declare-fun call__main_.call_controleur.avance () Bool)
(declare-fun avance0 () Bool)
(declare-fun call__main_.call_hypothese2.flby () Bool)
(declare-fun call_Sofar.Sofar () Bool)
(declare-fun call__main_.call_hypothese.c () Int)
(declare-fun call__main_.flby3 () Int)
(declare-fun call__main_.call_controleur.diff () Int)
(declare-fun call__main_.nB1 () Int)
(declare-fun call__main_.diff0 () Int)
(declare-fun call_Sofar.flby () Bool)
(declare-fun call__main_.call_controleur2.diff () Int)
(declare-fun call__main_.call_controleur2.flby2 () Bool)
(declare-fun call__main_.call_hypothese.flby2 () Int)
(declare-fun call__main_.diff1 () Int)
(declare-fun retard0 () Bool)
(declare-fun nB0 () Int)
(declare-fun call__main_.call_controleur.retard () Bool)
(define-fun .def_623 () Bool (= call_Sofar.flby call_Sofar.Sofar))
(define-fun .def_620 () Bool (= call__main_.call_controleur2.flby2 call__main_.call_controleur2.retard))
(define-fun .def_618 () Bool (= call__main_.call_controleur2.flby call__main_.call_controleur2.avance))
(define-fun .def_613 () Int (* (- 1) call__main_.call_controleur2.diff))
(define-fun .def_601 () Int (* (- 1) call__main_.nS))
(define-fun .def_614 () Int (+ .def_601 .def_613))
(define-fun .def_615 () Int (+ call__main_.nB1 .def_614))
(define-fun .def_616 () Bool (= .def_615 0))
(define-fun .def_608 () Bool (= call__main_.call_controleur.flby2 call__main_.call_controleur.retard))
(define-fun .def_606 () Bool (= call__main_.call_controleur.flby call__main_.call_controleur.avance))
(define-fun .def_600 () Int (* (- 1) call__main_.call_controleur.diff))
(define-fun .def_602 () Int (+ .def_601 .def_600))
(define-fun .def_603 () Int (+ call__main_.nB0 .def_602))
(define-fun .def_604 () Bool (= .def_603 0))
(define-fun .def_595 () Bool (= call__main_.call_hypothese2.flby2 call__main_.call_hypothese2.c))
(define-fun .def_592 () Bool (= call__main_.call_hypothese2.flby call__main_.call_hypothese2.ok))
(define-fun .def_590 () Bool (= call__main_.call_hypothese.flby2 call__main_.call_hypothese.c))
(define-fun .def_587 () Bool (= call__main_.call_hypothese.flby call__main_.call_hypothese.ok))
(define-fun .def_585 () Bool (= call__main_._H1_ call__main_.call_hypothese2.ok))
(define-fun .def_582 () Bool (= call__main_._H0_ call__main_.call_hypothese.ok))
(define-fun .def_579 () Bool (= call__main_.retard1 call__main_.call_controleur2.retard))
(define-fun .def_576 () Bool (= call__main_.retard0 call__main_.call_controleur.retard))
(define-fun .def_573 () Bool (= call__main_.avance1 call__main_.call_controleur2.avance))
(define-fun .def_570 () Bool (= call__main_.avance0 call__main_.call_controleur.avance))
(define-fun .def_567 () Bool (= call__main_.diff1 call__main_.call_controleur2.diff))
(define-fun .def_564 () Bool (= call__main_.diff0 call__main_.call_controleur.diff))
(define-fun .def_561 () Bool (= call__main_.flby3 call__main_.nS))
(define-fun .def_559 () Bool (= call__main_.flby2 call__main_.nB1))
(define-fun .def_557 () Bool (= call__main_.flby call__main_.nB0))
(define-fun .def_554 () Bool (and call__main_._H0_ call__main_._H1_))
(define-fun .def_555 () Bool (= call__main_.ast .def_554))
(define-fun .def_550 () Bool (= ast call__main_.ast))
(define-fun .def_547 () Bool (= retard1 call__main_.retard1))
(define-fun .def_543 () Bool (= retard0 call__main_.retard0))
(define-fun .def_539 () Bool (= avance1 call__main_.avance1))
(define-fun .def_535 () Bool (= avance0 call__main_.avance0))
(define-fun .def_531 () Bool (= diff1 call__main_.diff1))
(define-fun .def_527 () Bool (= diff0 call__main_.diff0))
(define-fun .def_523 () Bool (= nS call__main_.nS))
(define-fun .def_519 () Bool (= nB1 call__main_.nB1))
(define-fun .def_515 () Bool (= nB0 call__main_.nB0))
(define-fun .def_512 () Bool (= flby _OK_))
(define-fun .def_516 () Bool (and .def_512 .def_515))
(define-fun .def_520 () Bool (and .def_516 .def_519))
(define-fun .def_524 () Bool (and .def_520 .def_523))
(define-fun .def_528 () Bool (and .def_524 .def_527))
(define-fun .def_532 () Bool (and .def_528 .def_531))
(define-fun .def_536 () Bool (and .def_532 .def_535))
(define-fun .def_540 () Bool (and .def_536 .def_539))
(define-fun .def_544 () Bool (and .def_540 .def_543))
(define-fun .def_548 () Bool (and .def_544 .def_547))
(define-fun .def_551 () Bool (and .def_548 .def_550))
(define-fun .def_556 () Bool (and .def_551 .def_555))
(define-fun .def_558 () Bool (and .def_556 .def_557))
(define-fun .def_560 () Bool (and .def_558 .def_559))
(define-fun .def_562 () Bool (and .def_560 .def_561))
(define-fun .def_565 () Bool (and .def_562 .def_564))
(define-fun .def_568 () Bool (and .def_565 .def_567))
(define-fun .def_571 () Bool (and .def_568 .def_570))
(define-fun .def_574 () Bool (and .def_571 .def_573))
(define-fun .def_577 () Bool (and .def_574 .def_576))
(define-fun .def_580 () Bool (and .def_577 .def_579))
(define-fun .def_583 () Bool (and .def_580 .def_582))
(define-fun .def_586 () Bool (and .def_583 .def_585))
(define-fun .def_588 () Bool (and .def_586 .def_587))
(define-fun .def_591 () Bool (and .def_588 .def_590))
(define-fun .def_593 () Bool (and .def_591 .def_592))
(define-fun .def_596 () Bool (and .def_593 .def_595))
(define-fun .def_605 () Bool (and .def_596 .def_604))
(define-fun .def_607 () Bool (and .def_605 .def_606))
(define-fun .def_609 () Bool (and .def_607 .def_608))
(define-fun .def_617 () Bool (and .def_609 .def_616))
(define-fun .def_619 () Bool (and .def_617 .def_618))
(define-fun .def_621 () Bool (and .def_619 .def_620))
(define-fun .def_624 () Bool (and .def_621 .def_623))
(define-fun .def_509 () Bool (= ast call_Sofar.flby))
(define-fun .def_505 () Bool (not call__main_.call_controleur2.flby2))
(define-fun .def_502 () Bool (not call__main_.call_controleur2.flby))
(define-fun .def_499 () Bool (not call__main_.call_controleur.flby2))
(define-fun .def_496 () Bool (not call__main_.call_controleur.flby))
(define-fun .def_493 () Bool (= call__main_.call_hypothese2.flby2 0))
(define-fun .def_488 () Bool (= call__main_.call_hypothese.flby2 0))
(define-fun .def_483 () Bool (= call__main_.flby3 0))
(define-fun .def_480 () Bool (= call__main_.flby2 0))
(define-fun .def_476 () Bool (= call__main_.flby 0))
(define-fun .def_478 () Bool (and .def_476 flby))
(define-fun .def_481 () Bool (and .def_478 .def_480))
(define-fun .def_484 () Bool (and .def_481 .def_483))
(define-fun .def_486 () Bool (and .def_484 call__main_.call_hypothese.flby))
(define-fun .def_489 () Bool (and .def_486 .def_488))
(define-fun .def_491 () Bool (and .def_489 call__main_.call_hypothese2.flby))
(define-fun .def_494 () Bool (and .def_491 .def_493))
(define-fun .def_497 () Bool (and .def_494 .def_496))
(define-fun .def_500 () Bool (and .def_497 .def_499))
(define-fun .def_503 () Bool (and .def_500 .def_502))
(define-fun .def_506 () Bool (and .def_503 .def_505))
(define-fun .def_510 () Bool (and .def_506 .def_509))
(define-fun .def_625 () Bool (and .def_510 .def_624))
(assert .def_625)
